(set-info :Origin "This instance was generated by: BanditFuzz-- an RL fuzzer for SMT solvers" )
(set-info :Author "Joe Scott, Fed Mora, Vijay Ganesh" )
(set-info :Contact "Joe Scott, joseph.scott@uwaterloo.ca")
; solvers/z3.sh
; 	time => 0.1984872817993164
; 	answer => err
; solvers/bitwuzla.sh
; 	time => 0.16129803657531738
; 	answer => err
; solvers/cvc4.sh
; 	time => 0.19401240348815918
; 	answer => err
(set-logic QF_BV)
(declare-const bool_0 Bool)
(declare-const bool_1 Bool)
(declare-const bool_2 Bool)
(declare-const bool_3 Bool)
(declare-const bool_4 Bool)
(declare-const bv_0 (_ BitVec 8))
(declare-const bv_1 (_ BitVec 8))
(declare-const bv_2 (_ BitVec 8))
(declare-const bv_3 (_ BitVec 8))
(declare-const bv_4 (_ BitVec 8))
(assert (bvsge (bvlshr (bvsmod #x0000008c  bv_2) (bvadd bv_1 #x00000009 )) (bvurem (bvsdiv bv_3 #x00000035 ) (bvnand bv_0 #x000000bd ))))
(assert (and (bvule (bvand bv_3 bv_3) (bvnor #x00000083  bv_3)) (not (and bool_4 true))))
(assert (and (xor (not bool_1) (bvugt bv_0 #x0000009f )) (bvugt (bvudiv #x00000057  bv_4) (bvnand #x00000065  #x0000000c ))))
(assert (bvult (bvxor (bvsub #x000000b7  bv_1) (bvurem #x00000023  bv_3)) (bvmul (bvnor #x000000f4  #x00000003 ) (bvsub bv_3 #x00000086 ))))
(assert (bvsgt (bvudiv (bvashr bv_3 bv_3) (bvor bv_0 #x000000ec )) (bvor (bvlshr bv_3 bv_1) (bvlshr #x00000020  bv_2))))
(check-sat)
(exit)
